p cnf 50 250 
1 10 -7  0
1 46 22  0
1 15 -1  0
1 -4 7  0
1 -10 -14  0
1 21 -18  0
1 -21 4  0
1 -32 -15  0
1 -22 31  0
1 -3 33  0
1 34 -3  0
1 -10 39  0
1 3 48  0
1 16 -11  0
1 -15 -6  0
1 -20 -17  0
1 48 -13  0
1 46 -44  0
1 47 19  0
1 -8 15  0
1 -13 -27  0
1 38 50  0
1 -5 2  0
1 18 34  0
1 47 -25  0
1 19 31  0
1 50 36  0
1 1 47  0
1 -24 48  0
1 47 3  0
1 -4 10  0
1 -43 -42  0
1 -16 -2  0
1 -33 -1  0
1 -36 -21  0
1 -18 -5  0
1 2 -39  0
1 42 -13  0
1 22 27  0
1 18 -4  0
1 6 -34  0
1 35 18  0
1 38 9  0
1 -13 5  0
1 44 -46  0
1 -8 -14  0
1 -40 47  0
1 -1 48  0
1 -32 10  0
1 -27 14  0
1 22 -42  0
1 -47 -13  0
1 8 12  0
1 -26 3  0
1 50 -40  0
1 38 14  0
1 -24 -49  0
1 12 -21  0
1 13 32  0
1 -45 16  0
1 28 22  0
1 24 14  0
1 3 -40  0
1 4 -27  0
1 -25 -45  0
1 15 -40  0
1 -22 36  0
1 2 -34  0
1 -5 -36  0
1 50 49  0
1 -39 -24  0
1 1 2  0
1 46 47  0
1 -37 30  0
1 16 25  0
1 -8 42  0
1 -28 -27  0
1 -26 44  0
1 18 21  0
1 -23 27  0
1 -23 4  0
1 34 -17  0
1 41 -40  0
1 31 11  0
1 -38 4  0
1 -47 13  0
1 34 32  0
1 -24 33  0
1 41 11  0
1 -9 10  0
1 -8 26  0
1 34 22  0
1 -35 20  0
1 -34 13  0
1 -18 -5  0
1 -37 -16  0
1 -26 -11  0
1 20 -29  0
1 -5 -43  0
1 15 -20  0
1 40 35  0
1 -47 5  0
1 10 -26  0
1 41 49  0
1 9 -7  0
1 36 -9  0
1 -1 4  0
1 24 33  0
1 -18 23  0
1 -28 -23  0
1 -49 -34  0
1 32 -6  0
1 13 -5  0
1 -13 27  0
1 -31 17  0
1 50 42  0
1 -15 -3  0
1 -26 9  0
1 42 12  0
1 18 -17  0
1 -22 -34  0
1 -10 -17  0
1 -33 -27  0
1 -18 -11  0
1 14 -29  0
1 37 -2  0
1 13 -26  0
1 43 16  0
1 -49 38  0
1 -5 -47  0
1 23 -41  0
1 1 18  0
1 47 -45  0
1 47 16  0
1 -42 -13  0
1 -28 -49  0
1 -36 -46  0
1 -42 31  0
1 21 47  0
1 -15 26  0
1 -21 38  0
1 -4 -5  0
1 -17 -15  0
1 14 -26  0
1 -22 3  0
1 -33 17  0
1 13 -31  0
1 -7 -9  0
1 -46 -32  0
1 -36 19  0
1 -34 -23  0
1 -49 16  0
1 -19 36  0
1 3 11  0
1 -42 -28  0
1 36 -30  0
1 -11 -17  0
1 -36 25  0
1 48 -45  0
1 10 -13  0
1 -49 1  0
1 11 33  0
1 -10 -8  0
1 -38 -24  0
1 -41 -7  0
1 -32 -43  0
1 -37 -12  0
1 25 43  0
1 43 4  0
1 36 -41  0
1 -49 -6  0
1 -29 16  0
1 -23 29  0
1 -22 40  0
1 2 -9  0
1 -2 -29  0
1 -32 24  0
1 14 4  0
1 -10 -3  0
1 18 -33  0
1 -11 -1  0
1 -41 -28  0
1 36 -44  0
1 -23 17  0
1 41 30  0
1 34 -33  0
1 -35 15  0
1 -48 38  0
1 -38 41  0
1 30 20  0
1 38 46  0
1 -50 45  0
1 49 34  0
1 -26 38  0
1 -40 -27  0
1 36 -32  0
1 10 -35  0
1 35 28  0
1 -24 21  0
1 -15 41  0
1 -24 -45  0
1 32 9  0
1 36 50  0
1 -32 -25  0
1 9 -1  0
1 29 38  0
1 9 6  0
1 -47 16  0
1 11 -16  0
1 24 25  0
1 -25 19  0
1 -43 26  0
1 -26 17  0
1 4 10  0
1 -16 30  0
1 -46 22  0
1 -37 1  0
1 26 11  0
1 30 50  0
1 25 2  0
1 19 -5  0
1 -10 -35  0
1 -20 -7  0
1 -39 -40  0
1 37 -39  0
1 -8 15  0
1 -21 49  0
1 -23 -32  0
1 36 -14  0
1 -48 13  0
1 20 19  0
1 -8 -36  0
1 -24 -11  0
1 -26 -18  0
1 17 -20  0
1 -2 -10  0
1 -23 48  0
1 -11 -18  0
1 -36 -46  0
1 -32 33  0
1 -44 29  0
1 46 26  0
1 46 -34  0
1 -43 30  0
1 -27 -19  0
1 36 24  0
1 20 4  0
1 37 -1  0
1 -29 44  0
1 -20 14  0
